\ Model Cl_35_Ins_3.lp
\ LP format - for model browsing. Use MPS format to capture full model detail.
Maximize
 
Subject To
 obj1: y[0] = 0
 obj2: y[1] = 0
 obj1_Exp: - y[0] + 98 x[0] + 94 x[1] + 90 x[2] + 87 x[3] + 84 x[4]
   + 83 x[5] + 82 x[6] + 81 x[7] + 75 x[8] + 73 x[9] + 72 x[10] + 68 x[11]
   + 66 x[12] + 64 x[13] + 63 x[14] + 56 x[15] + 51 x[16] + 51 x[17]
   + 49 x[18] + 41 x[19] + 33 x[20] + 32 x[21] + 28 x[22] + 27 x[23]
   + 27 x[24] + 24 x[25] + 22 x[26] + 20 x[27] + 17 x[28] + 15 x[29]
   + 11 x[30] + 8 x[31] + 8 x[32] + 5 x[33] + 2 x[34] = 0
 obj2_Exp: - y[1] + 91 x[0] + 65 x[1] + 83 x[2] + 32 x[3] + 62 x[4]
   + 89 x[5] + 47 x[6] + 39 x[7] + 65 x[8] + 96 x[9] + 94 x[10] + 76 x[11]
   + 57 x[12] + 54 x[13] + 82 x[14] + 12 x[15] + 33 x[16] + 82 x[17]
   + 80 x[18] + 75 x[19] + 29 x[20] + 49 x[21] + 92 x[22] + 27 x[23]
   + 50 x[24] + 95 x[25] + 65 x[26] + 48 x[27] + 97 x[28] + 20 x[29]
   + 89 x[30] + 76 x[31] + 19 x[32] + 26 x[33] + 78 x[34] = 0
 Budget: 108 x[0] + 104 x[1] + 100 x[2] + 97 x[3] + 94 x[4] + 93 x[5]
   + 92 x[6] + 91 x[7] + 85 x[8] + 83 x[9] + 82 x[10] + 78 x[11] + 76 x[12]
   + 74 x[13] + 73 x[14] + 66 x[15] + 61 x[16] + 61 x[17] + 59 x[18]
   + 51 x[19] + 43 x[20] + 42 x[21] + 38 x[22] + 37 x[23] + 37 x[24]
   + 34 x[25] + 32 x[26] + 30 x[27] + 27 x[28] + 25 x[29] + 21 x[30]
   + 18 x[31] + 18 x[32] + 15 x[33] + 12 x[34] <= 611
Bounds
Binaries
 x[0] x[1] x[2] x[3] x[4] x[5] x[6] x[7] x[8] x[9] x[10] x[11] x[12] x[13]
 x[14] x[15] x[16] x[17] x[18] x[19] x[20] x[21] x[22] x[23] x[24] x[25]
 x[26] x[27] x[28] x[29] x[30] x[31] x[32] x[33] x[34]
Generals
 y[0] y[1]
End
